p cnf 1429 2244
-3 -18 -22 101 0
-22 -27 -57 -101 0
2 8 19 102 0
19 28 71 -102 0
9 -12 18 103 0
18 -24 -103 104 0
-24 44 -104 105 0
44 91 -105 106 0
91 -93 -98 -106 0
45 62 -80 107 0
-80 -93 97 -107 0
-30 -50 -53 -69 0
-17 -47 -56 -76 0
35 46 -47 108 0
-47 -57 -108 109 0
-57 -60 -109 110 0
-60 63 -110 111 0
63 -71 -73 -111 0
-30 45 67 112 0
67 -90 -94 -112 0
28 -38 -46 113 0
-46 -51 -113 114 0
-51 -83 96 -114 0
-21 -74 -76 100 0
-13 26 115 116 0
-13 26 115 -116 0
-13 26 -115 116 0
-13 26 -115 -116 0
-29 33 -85 -88 0
2 25 30 89 0
-37 -77 117 118 0
-37 -77 117 -118 0
-37 -77 -117 118 0
-37 -77 -117 -118 0
-12 17 83 119 0
-12 17 83 -119 0
7 49 83 -97 0
1 -7 29 120 0
29 30 -120 121 0
30 -42 -121 122 0
-42 -72 -84 -122 0
-12 26 29 123 0
29 31 63 -123 0
15 35 38 124 0
38 39 -124 125 0
39 -71 -125 126 0
-71 73 -126 127 0
73 -93 97 -127 0
-3 25 -95 128 0
-3 25 -95 -128 0
12 23 -69 89 0
-28 31 -80 129 0
-28 31 -80 -129 0
44 -96 130 131 0
44 -96 130 -131 0
44 -96 -130 131 0
44 -96 -130 -131 0
1 20 22 132 0
22 24 -132 133 0
24 59 -133 134 0
59 -68 -134 135 0
-68 71 -135 136 0
71 91 92 -136 0
18 23 -65 137 0
18 23 -65 -137 0
-9 -19 138 139 0
-9 -19 138 -139 0
-9 -19 -138 139 0
-9 -19 -138 -139 0
47 -56 -68 -96 0
-20 79 90 140 0
-20 79 90 -140 0
-29 38 48 141 0
48 -78 84 -141 0
-5 7 12 142 0
12 -18 -142 143 0
-18 74 -143 144 0
74 93 94 -144 0
15 -17 -50 145 0
-50 -70 -145 146 0
-70 81 -86 -146 0
-14 16 52 147 0
-14 16 52 -147 0
-22 -44 -54 148 0
-54 97 99 -148 0
-17 -40 -55 149 0
-17 -40 -55 -149 0
-12 34 73 150 0
-12 34 73 -150 0
-31 -33 -56 151 0
-56 58 -59 -151 0
-1 37 75 152 0
75 -76 -152 153 0
-76 -90 100 -153 0
-18 49 76 154 0
76 85 -97 -154 0
14 70 -73 155 0
14 70 -73 -155 0
60 71 82 85 0
39 -53 57 156 0
57 -68 -73 -156 0
1 22 -29 157 0
-29 -38 -157 158 0
-38 -55 -60 -158 0
7 22 78 159 0
78 79 -159 160 0
79 -95 99 -160 0
-13 24 25 161 0
25 -40 -161 162 0
-40 -43 70 -162 0
2 5 27 163 0
27 -42 -163 164 0
-42 -51 -88 -164 0
2 -23 35 -36 0
-6 -27 29 165 0
29 30 -165 166 0
30 -32 -166 167 0
-32 34 -167 168 0
34 35 -168 169 0
35 -37 -42 -169 0
1 -22 88 -94 0
8 -31 -40 170 0
-40 52 -170 171 0
52 63 -81 -171 0
-15 -65 73 172 0
73 74 93 -172 0
-8 26 -44 79 0
1 18 -58 173 0
-58 63 80 -173 0
-12 -28 -36 64 0
12 -16 -55 174 0
-55 61 -174 175 0
61 83 97 -175 0
2 16 -27 176 0
-27 38 -176 177 0
38 -77 -84 -177 0
4 -50 -55 178 0
4 -50 -55 -178 0
1 3 8 179 0
8 19 -179 180 0
19 -33 -180 181 0
-33 -36 -181 182 0
-36 46 72 -182 0
-4 12 21 183 0
21 85 92 -183 0
-8 -39 -48 184 0
-48 59 -184 185 0
59 60 -185 186 0
60 67 -77 -186 0
-31 50 -55 187 0
-55 66 -187 188 0
66 -83 88 -188 0
8 -25 66 189 0
66 70 -99 -189 0
6 -39 -52 190 0
-52 71 -83 -190 0
2 -4 -54 73 0
51 61 75 191 0
75 -81 84 -191 0
-2 -40 60 89 0
22 23 -28 192 0
-28 -42 -192 193 0
-42 50 -52 -193 0
6 34 194 195 0
6 34 194 -195 0
6 34 -194 195 0
6 34 -194 -195 0
-10 14 -46 57 0
-6 29 -44 196 0
-44 -49 -196 197 0
-49 -53 -197 198 0
-53 66 -198 199 0
66 71 -199 200 0
71 -84 88 -200 0
-7 31 -38 201 0
-7 31 -38 -201 0
4 -7 14 202 0
14 49 -202 203 0
49 -59 -70 -203 0
48 50 68 204 0
48 50 68 -204 0
-3 9 34 -65 0
23 73 76 205 0
23 73 76 -205 0
-59 62 -72 206 0
-59 62 -72 -206 0
46 47 78 207 0
46 47 78 -207 0
-5 45 51 208 0
51 66 -208 209 0
66 81 -209 210 0
81 88 -93 -210 0
-4 7 -28 -45 0
-18 37 42 211 0
42 51 -63 -211 0
-14 25 27 212 0
27 -48 -212 213 0
-48 -50 -213 214 0
-50 59 -214 215 0
59 -65 -69 -215 0
-17 68 73 -88 0
26 53 -88 216 0
26 53 -88 -216 0
5 -11 42 98 0
-3 -65 -75 -98 0
31 34 -41 217 0
-41 47 99 -217 0
50 64 65 -100 0
-4 13 -16 218 0
-16 -40 -218 219 0
-40 -44 -219 220 0
-44 72 -220 221 0
72 73 -221 222 0
73 -80 -222 223 0
-80 -85 -91 -223 0
27 29 46 224 0
46 -59 -224 225 0
-59 66 -67 -225 0
12 -22 38 226 0
38 -49 -226 227 0
-49 -81 -227 228 0
-81 -87 -100 -228 0
-21 66 73 -74 0
-2 -6 16 229 0
16 -35 -229 230 0
-35 -55 -230 231 0
-55 60 -231 232 0
60 -67 -232 233 0
-67 -82 -233 234 0
-82 -86 -91 -234 0
-16 18 58 235 0
58 -84 -98 -235 0
2 69 76 -87 0
-3 10 11 236 0
11 46 -236 237 0
46 -59 -237 238 0
-59 -86 -89 -238 0
1 17 21 239 0
21 -27 -239 240 0
-27 -51 98 -240 0
-12 -29 55 241 0
55 -65 -241 242 0
-65 85 -242 243 0
85 87 100 -243 0
80 93 96 98 0
9 -28 -69 244 0
-69 -92 -98 -244 0
4 -17 -27 245 0
-27 -38 -245 246 0
-38 81 -246 247 0
81 82 -88 -247 0
40 78 248 249 0
40 78 248 -249 0
40 78 -248 249 0
40 78 -248 -249 0
-6 -13 40 250 0
40 -61 -250 251 0
-61 69 -251 252 0
69 91 97 -252 0
-10 -33 -52 65 0
-7 97 253 254 0
-7 97 253 -254 0
-7 97 -253 254 0
-7 97 -253 -254 0
8 -9 -20 255 0
-20 -35 -255 256 0
-35 -38 -256 257 0
-38 -59 -257 258 0
-59 -71 -258 259 0
-71 95 96 -259 0
-2 8 9 260 0
9 37 -260 261 0
37 69 -261 262 0
69 -74 81 -262 0
17 -46 49 263 0
49 -58 -263 264 0
-58 -61 -97 -264 0
-6 11 40 265 0
40 -55 59 -265 0
-15 24 -25 -28 0
-30 40 93 266 0
-30 40 93 -266 0
1 -9 -16 -55 0
27 39 63 267 0
63 -64 -267 268 0
-64 81 -268 269 0
81 82 93 -269 0
9 27 -33 270 0
-33 -77 -270 271 0
-77 81 -271 272 0
81 -89 -272 273 0
-89 92 -93 -273 0
12 -34 -38 274 0
-38 -50 -93 -274 0
4 28 275 276 0
4 28 275 -276 0
4 28 -275 276 0
4 28 -275 -276 0
11 74 -87 277 0
11 74 -87 -277 0
39 -70 -79 278 0
39 -70 -79 -278 0
21 -83 -85 91 0
-8 47 48 279 0
48 -57 -279 280 0
-57 -80 -86 -280 0
17 41 58 281 0
58 68 -281 282 0
68 69 -282 283 0
69 -72 -283 284 0
-72 -82 97 -284 0
11 -50 53 285 0
53 -59 62 -285 0
8 17 -55 71 0
61 -68 77 -84 0
3 -11 -28 46 0
37 -41 -63 286 0
-63 66 -286 287 0
66 72 -287 288 0
72 -79 -82 -288 0
-15 18 -30 289 0
-30 43 -289 290 0
43 -48 -290 291 0
-48 -64 -291 292 0
-64 67 -292 293 0
67 -70 -100 -293 0
2 14 -36 294 0
-36 -45 -294 295 0
-45 56 -295 296 0
56 -57 -75 -296 0
-22 24 63 297 0
-22 24 63 -297 0
12 67 94 298 0
12 67 94 -298 0
-2 -31 -57 299 0
-2 -31 -57 -299 0
-50 65 300 301 0
-50 65 300 -301 0
-50 65 -300 301 0
-50 65 -300 -301 0
24 -30 -72 302 0
24 -30 -72 -302 0
17 -21 -40 303 0
-40 -49 -303 304 0
-49 69 -304 305 0
69 -83 -95 -305 0
-17 25 -63 306 0
-63 -77 -306 307 0
-77 83 90 -307 0
-11 24 49 308 0
-11 24 49 -308 0
-9 16 309 310 0
-9 16 309 -310 0
-9 16 -309 310 0
-9 16 -309 -310 0
24 34 -62 311 0
-62 78 -311 312 0
78 93 -99 -312 0
41 -42 -64 88 0
-3 -54 -65 -70 0
44 -57 -72 313 0
44 -57 -72 -313 0
2 18 20 314 0
20 -28 -314 315 0
-28 -46 -315 316 0
-46 49 -316 317 0
49 -59 -317 318 0
-59 74 92 -318 0
4 19 -56 319 0
-56 -68 -319 320 0
-68 -74 97 -320 0
59 99 321 322 0
59 99 321 -322 0
59 99 -321 322 0
59 99 -321 -322 0
17 -37 51 323 0
51 -53 -73 -323 0
59 -60 72 324 0
59 -60 72 -324 0
25 41 43 325 0
43 -65 -325 326 0
-65 68 -326 327 0
68 70 -91 -327 0
48 -53 81 328 0
81 92 -328 329 0
92 -94 -98 -329 0
-26 -65 69 330 0
69 -86 99 -330 0
-11 -23 43 331 0
43 -53 -91 -331 0
6 -42 -51 57 0
-3 -10 14 332 0
14 -27 -332 333 0
-27 51 53 -333 0
-11 61 74 -94 0
-36 -65 -76 334 0
-76 -93 96 -334 0
7 -12 15 335 0
15 -54 -86 -335 0
-23 -34 45 -87 0
-33 38 -51 336 0
-51 69 -336 337 0
69 -79 -337 338 0
-79 83 -338 339 0
83 86 -339 340 0
86 -88 -97 -340 0
16 72 77 84 0
9 16 17 78 0
-11 14 -27 341 0
-27 -44 -341 342 0
-44 -81 91 -342 0
-6 60 68 343 0
68 71 78 -343 0
-1 23 42 344 0
42 -48 -344 345 0
-48 -65 -67 -345 0
51 -68 -73 346 0
-73 76 90 -346 0
-1 16 -41 347 0
-41 59 -347 348 0
59 62 -348 349 0
62 68 -84 -349 0
1 12 -46 -75 0
17 -31 66 -68 0
5 14 54 350 0
54 75 76 -350 0
15 56 71 83 0
-4 70 -73 351 0
-4 70 -73 -351 0
7 38 -55 -99 0
11 -34 -38 -50 0
-29 31 -32 352 0
-32 42 -352 353 0
42 -46 -353 354 0
-46 -49 -354 355 0
-49 53 -89 -355 0
-2 -13 52 356 0
52 76 -356 357 0
76 79 -357 358 0
79 82 -85 -358 0
10 -15 91 359 0
10 -15 91 -359 0
-19 24 28 360 0
28 -40 -360 361 0
-40 42 -361 362 0
42 46 92 -362 0
-25 47 51 363 0
51 63 -80 -363 0
3 -12 -64 364 0
-64 -83 100 -364 0
-44 93 365 366 0
-44 93 365 -366 0
-44 93 -365 366 0
-44 93 -365 -366 0
28 89 93 -96 0
-8 19 25 367 0
25 28 -367 368 0
28 30 -368 369 0
30 -44 -60 -369 0
-22 -27 -40 93 0
4 9 -12 370 0
-12 -25 -370 371 0
-25 -67 -371 372 0
-67 -72 -372 373 0
-72 -79 -98 -373 0
-19 -42 374 375 0
-19 -42 374 -375 0
-19 -42 -374 375 0
-19 -42 -374 -375 0
31 93 -95 -98 0
50 74 -84 376 0
50 74 -84 -376 0
24 25 -40 377 0
-40 78 86 -377 0
-1 22 38 378 0
-1 22 38 -378 0
1 -4 12 92 0
-36 83 -95 99 0
-58 93 99 379 0
-58 93 99 -379 0
-25 -29 -33 380 0
-33 60 -84 -380 0
-62 -72 83 84 0
14 -19 -36 381 0
-36 43 -381 382 0
43 48 -382 383 0
48 -53 -383 384 0
-53 63 -384 385 0
63 -84 97 -385 0
-2 -7 11 386 0
11 17 -386 387 0
17 28 -387 388 0
28 37 80 -388 0
-2 6 18 389 0
18 -21 -389 390 0
-21 27 -390 391 0
27 -33 -391 392 0
-33 53 100 -392 0
54 71 -89 393 0
54 71 -89 -393 0
-39 -59 -62 -78 0
-26 -56 -65 -85 0
-3 44 55 394 0
55 -56 -394 395 0
-56 -66 -395 396 0
-66 -69 -396 397 0
-69 72 -397 398 0
72 -80 -82 -398 0
5 -39 54 399 0
54 76 -99 -399 0
9 37 -47 400 0
-47 -55 -400 401 0
-55 -60 -92 -401 0
-30 -83 -85 402 0
-30 -83 -85 -402 0
-22 35 403 404 0
-22 35 403 -404 0
-22 35 -403 404 0
-22 35 -403 -404 0
-38 42 -94 -97 0
11 34 39 98 0
-46 -86 405 406 0
-46 -86 405 -406 0
-46 -86 -405 406 0
-46 -86 -405 -406 0
-6 -21 26 92 0
16 58 92 407 0
16 58 92 -407 0
10 -16 38 408 0
38 39 -408 409 0
39 -51 -409 410 0
-51 -81 -93 -410 0
-2 6 -21 411 0
-21 35 -411 412 0
35 38 -412 413 0
38 40 72 -413 0
-4 24 44 414 0
44 47 -414 415 0
47 48 -415 416 0
48 -80 82 -416 0
-12 34 417 418 0
-12 34 417 -418 0
-12 34 -417 418 0
-12 34 -417 -418 0
21 32 -78 98 0
-5 -37 40 -89 0
1 53 419 420 0
1 53 419 -420 0
1 53 -419 420 0
1 53 -419 -420 0
10 29 31 421 0
31 33 -421 422 0
33 68 -422 423 0
68 -77 -423 424 0
-77 80 100 -424 0
27 32 -74 425 0
27 32 -74 -425 0
-5 -18 -28 426 0
-5 -18 -28 -426 0
56 -65 -77 427 0
56 -65 -77 -427 0
-29 88 99 428 0
-29 88 99 -428 0
2 3 -38 429 0
-38 47 -429 430 0
47 57 -430 431 0
57 -87 93 -431 0
-14 16 21 432 0
21 -27 83 -432 0
24 -26 -59 433 0
-59 -79 -433 434 0
-79 90 -95 -434 0
6 8 -23 435 0
-23 25 61 -435 0
-31 -53 -63 436 0
-31 -53 -63 -436 0
-26 -49 -64 437 0
-26 -49 -64 -437 0
-8 -21 43 82 0
9 -40 -42 438 0
-42 -65 -438 439 0
-65 67 -68 -439 0
-6 -10 46 440 0
46 84 -440 441 0
84 -85 -99 -441 0
-27 58 85 94 0
23 79 -82 442 0
23 79 -82 -442 0
69 80 91 94 0
48 -62 66 443 0
66 -77 -82 -443 0
-4 8 10 444 0
10 31 -444 445 0
31 -38 -445 446 0
-38 -47 -446 447 0
-47 -64 -69 -447 0
16 31 87 88 0
-22 33 34 448 0
34 -49 -448 449 0
-49 -52 79 -449 0
11 14 36 450 0
36 -51 -450 451 0
-51 -60 -97 -451 0
11 -32 44 -45 0
-3 -15 -36 452 0
-36 38 -452 453 0
38 39 -453 454 0
39 -41 -454 455 0
-41 43 -455 456 0
43 44 -456 457 0
44 -46 -51 -457 0
10 -31 97 458 0
10 -31 97 -458 0
2 17 -40 459 0
-40 -49 -459 460 0
-49 61 -460 461 0
61 72 -90 -461 0
-24 -74 82 83 0
-17 35 -53 88 0
10 27 -67 462 0
-67 72 89 -462 0
6 -21 -37 463 0
-37 -45 73 -463 0
21 -25 -64 464 0
-64 70 92 -464 0
11 25 -36 465 0
-36 47 -465 466 0
47 -86 -93 -466 0
13 -59 -64 467 0
13 -59 -64 -467 0
1 10 12 468 0
12 17 -468 469 0
17 28 -469 470 0
28 -42 -470 471 0
-42 -45 -471 472 0
-45 55 81 -472 0
-13 21 30 94 0
-17 -48 -57 473 0
-57 68 -473 474 0
68 69 -474 475 0
69 76 -86 -475 0
-8 -40 59 476 0
59 -64 -476 477 0
-64 75 -477 478 0
75 -92 97 -478 0
17 -34 75 79 0
15 -48 -61 479 0
-61 80 -92 -479 0
11 -13 -63 82 0
60 70 84 480 0
84 -90 93 -480 0
-11 -49 69 98 0
31 32 -37 481 0
-37 -51 -481 482 0
-51 59 -61 -482 0
15 43 483 484 0
15 43 483 -484 0
15 43 -483 484 0
15 43 -483 -484 0
-19 23 -55 66 0
-15 38 -53 485 0
-53 -58 -485 486 0
-58 -62 -486 487 0
-62 75 -487 488 0
75 80 -488 489 0
80 -93 97 -489 0
-16 40 -47 490 0
-16 40 -47 -490 0
13 -16 23 491 0
23 58 -491 492 0
58 -68 -79 -492 0
57 59 77 493 0
57 59 77 -493 0
-12 18 43 -74 0
32 82 85 494 0
32 82 85 -494 0
-68 71 -81 495 0
-68 71 -81 -495 0
-2 55 56 87 0
-14 54 60 496 0
60 75 -496 497 0
75 90 97 -497 0
-13 16 -37 -54 0
-27 46 51 498 0
51 60 -72 -498 0
-23 34 36 499 0
36 -57 -499 500 0
-57 -59 -500 501 0
-59 68 -501 502 0
68 -74 -78 -502 0
-26 77 82 -97 0
7 35 62 -97 0
-7 14 -20 51 0
8 -12 -74 -84 0
-9 40 43 503 0
43 -50 56 -503 0
59 73 74 504 0
59 73 74 -504 0
-13 22 -25 505 0
-25 -49 -505 506 0
-49 -53 -506 507 0
-53 81 -507 508 0
81 82 -508 509 0
82 -89 -509 510 0
-89 -94 -100 -510 0
-9 36 38 511 0
38 55 -511 512 0
55 -68 -512 513 0
-68 75 -76 -513 0
21 -31 47 514 0
47 -58 -514 515 0
-58 -90 -96 -515 0
-30 75 82 -83 0
-7 -11 -15 516 0
-15 25 -516 517 0
25 -44 -517 518 0
-44 -64 -518 519 0
-64 69 -519 520 0
69 -76 -520 521 0
-76 -91 -521 522 0
-91 -95 -100 -522 0
-25 27 67 -93 0
11 78 85 -96 0
7 -12 19 523 0
19 20 -523 524 0
20 55 -524 525 0
55 -68 -525 526 0
-68 -95 -98 -526 0
9 10 26 527 0
26 30 -527 528 0
30 -36 -60 -528 0
2 5 7 529 0
7 -21 -529 530 0
-21 -38 -530 531 0
-38 64 -531 532 0
64 -74 -532 533 0
-74 94 96 -533 0
-1 -7 89 534 0
-1 -7 89 -534 0
18 -37 -78 535 0
18 -37 -78 -535 0
13 -26 -36 536 0
-36 -47 -536 537 0
-47 90 -537 538 0
90 91 -97 -538 0
6 49 87 539 0
6 49 87 -539 0
-15 -22 49 540 0
49 -70 -540 541 0
-70 78 100 -541 0
6 -19 -42 542 0
-42 -61 74 -542 0
4 5 -16 543 0
4 5 -16 -543 0
17 -18 -29 544 0
-29 -44 -544 545 0
-44 -47 -545 546 0
-47 -68 -80 -546 0
-6 -11 17 547 0
17 18 -547 548 0
18 46 -548 549 0
46 78 -549 550 0
78 -83 90 -550 0
26 -55 58 551 0
58 -67 -70 -551 0
-15 20 49 552 0
49 -64 68 -552 0
2 -24 33 553 0
33 -34 -37 -553 0
-39 49 554 555 0
-39 49 554 -555 0
-39 49 -554 555 0
-39 49 -554 -555 0
2 10 -18 556 0
-18 -25 -64 -556 0
1 -2 36 557 0
36 48 -557 558 0
48 72 -558 559 0
72 -73 -559 560 0
-73 90 91 -560 0
-2 18 36 561 0
36 -42 -561 562 0
-42 -86 -562 563 0
-86 90 -98 -563 0
21 -43 -47 -59 0
13 37 564 565 0
13 37 564 -565 0
13 37 -564 565 0
13 37 -564 -565 0
20 83 -96 566 0
20 83 -96 -566 0
48 -79 -88 567 0
48 -79 -88 -567 0
30 -92 -94 100 0
6 -17 56 568 0
56 57 -568 569 0
57 -66 -569 570 0
-66 -89 -95 -570 0
26 50 67 571 0
67 77 -571 572 0
77 78 -572 573 0
78 -81 -91 -573 0
20 -59 62 574 0
62 -68 71 -574 0
17 26 -64 80 0
70 -77 86 -93 0
12 -20 -37 55 0
-9 46 -50 575 0
-50 -72 -575 576 0
-72 75 -576 577 0
75 81 -577 578 0
81 -88 -91 -578 0
-24 27 -39 579 0
-39 52 -579 580 0
52 -57 -580 581 0
-57 -73 -581 582 0
-73 76 -79 -582 0
11 23 -45 583 0
-45 -54 -583 584 0
-54 65 -584 585 0
65 -66 -84 -585 0
3 -31 33 72 0
21 76 586 587 0
21 76 586 -587 0
21 76 -586 587 0
21 76 -586 -587 0
-11 -40 -66 588 0
-11 -40 -66 -588 0
-59 74 589 590 0
-59 74 589 -590 0
-59 74 -589 590 0
-59 74 -589 -590 0
-4 33 -39 -81 0
26 -30 -49 591 0
-49 -58 -591 592 0
-58 78 -92 -592 0
-26 34 -72 593 0
-72 -86 -593 594 0
-86 92 99 -594 0
-20 33 58 595 0
-20 33 58 -595 0
2 -8 -18 25 0
33 43 -71 87 0
50 -51 -73 97 0
-12 -63 -74 -79 0
1 53 -66 -81 0
6 11 27 596 0
27 29 -596 597 0
29 -37 -597 598 0
-37 -55 -598 599 0
-55 58 -599 600 0
58 -68 83 -600 0
8 13 28 601 0
28 -65 -601 602 0
-65 -77 -83 -602 0
26 -46 60 603 0
60 -62 -82 -603 0
68 -69 81 604 0
68 -69 81 -604 0
1 -3 -7 605 0
-7 34 -605 606 0
34 50 -606 607 0
50 52 -607 608 0
52 -74 -608 609 0
-74 77 -609 610 0
77 79 -100 -610 0
8 57 -62 90 0
-35 -74 78 -95 0
-20 -32 52 611 0
52 -62 -100 -611 0
15 -51 -60 66 0
-3 -12 -19 612 0
-19 23 -612 613 0
23 -36 -613 614 0
-36 60 62 -614 0
-2 5 -20 615 0
-20 70 83 -615 0
-45 -74 -85 616 0
-45 -74 -85 -616 0
16 -21 24 617 0
24 -63 -95 -617 0
-6 -32 -43 618 0
-43 54 -96 -618 0
-42 47 -60 619 0
-60 78 -619 620 0
78 -88 -620 621 0
-88 92 -621 622 0
92 95 -97 -622 0
25 81 86 93 0
18 25 26 87 0
-20 23 -36 623 0
-36 -53 -623 624 0
-53 -90 100 -624 0
-15 69 77 625 0
77 80 87 -625 0
-10 32 51 626 0
51 -57 -626 627 0
-57 -74 -76 -627 0
60 -77 -82 628 0
-82 85 99 -628 0
-10 25 -50 629 0
-50 68 -629 630 0
68 71 -630 631 0
71 77 -93 -631 0
10 21 -55 -84 0
26 -40 75 -77 0
14 23 63 632 0
63 84 85 -632 0
24 65 80 92 0
-13 79 -82 633 0
-13 79 -82 -633 0
-8 -12 634 635 0
-8 -12 634 -635 0
-8 -12 -634 635 0
-8 -12 -634 -635 0
16 47 -64 636 0
16 47 -64 -636 0
20 -43 -47 -59 0
-38 40 -41 637 0
-41 51 -637 638 0
51 -55 -638 639 0
-55 -58 -639 640 0
-58 62 -98 -640 0
-11 -22 61 641 0
61 85 -641 642 0
85 88 -642 643 0
88 91 -94 -643 0
1 19 -24 100 0
-28 33 37 644 0
37 -49 -644 645 0
-49 51 55 -645 0
9 -34 56 646 0
56 60 -646 647 0
60 72 -89 -647 0
2 12 -21 648 0
-21 -73 -92 -648 0
2 -5 -53 649 0
2 -5 -53 -649 0
37 98 650 651 0
37 98 650 -651 0
37 98 -650 651 0
37 98 -650 -651 0
2 -17 28 652 0
28 34 -652 653 0
34 37 -653 654 0
37 39 -654 655 0
39 -53 -69 -655 0
-7 -31 -36 -49 0
13 18 -21 656 0
-21 -34 -656 657 0
-34 -76 -657 658 0
-76 -81 -88 -658 0
2 -4 -7 659 0
-7 -28 -51 -659 0
59 83 -93 660 0
59 83 -93 -660 0
33 34 -49 661 0
-49 87 95 -661 0
1 -10 31 47 0
-4 8 10 662 0
10 -13 21 -662 0
2 8 -45 92 0
-34 -38 -42 663 0
-42 69 -93 -663 0
6 -71 -81 664 0
-81 92 93 -664 0
23 -28 -45 665 0
-45 52 -665 666 0
52 57 -666 667 0
57 -62 -667 668 0
-62 72 -93 -668 0
9 -11 -16 669 0
-16 20 -669 670 0
20 26 -670 671 0
26 37 -671 672 0
37 46 89 -672 0
-11 15 27 673 0
27 -30 -673 674 0
-30 36 -674 675 0
36 -42 62 -675 0
63 80 -98 676 0
63 80 -98 -676 0
-48 -68 -71 -87 0
-35 -65 -74 -94 0
-8 -12 53 677 0
53 64 -677 678 0
64 -65 -678 679 0
-65 -75 -679 680 0
-75 -78 -680 681 0
-78 81 -681 682 0
81 -89 -91 -682 0
-1 14 -48 683 0
-48 63 85 -683 0
18 46 -56 684 0
-56 -64 -69 -684 0
-39 -92 -94 685 0
-39 -92 -94 -685 0
-3 -6 -31 44 0
7 -47 51 686 0
7 -47 51 -686 0
20 43 48 687 0
20 43 48 -687 0
1 -55 -95 688 0
1 -55 -95 -688 0
1 -15 -30 35 0
25 67 689 690 0
25 67 689 -690 0
25 67 -689 690 0
25 67 -689 -690 0
-2 19 691 692 0
-2 19 691 -692 0
-2 19 -691 692 0
-2 19 -691 -692 0
19 -25 47 693 0
47 48 -693 694 0
48 -60 -90 -694 0
-11 15 -30 695 0
-30 44 -695 696 0
44 47 -696 697 0
47 49 81 -697 0
-13 33 53 698 0
53 56 -698 699 0
56 57 -699 700 0
57 -89 91 -700 0
7 -21 43 701 0
7 -21 43 -701 0
30 41 -87 702 0
30 41 -87 -702 0
-14 -46 49 -98 0
9 10 62 703 0
9 10 62 -703 0
19 38 40 704 0
40 42 -704 705 0
42 77 -705 706 0
77 -86 89 -706 0
36 41 -83 707 0
36 41 -83 -707 0
-14 -27 -37 708 0
-14 -27 -37 -708 0
8 65 -74 -86 0
2 -38 97 709 0
2 -38 97 -709 0
11 12 -47 710 0
-47 56 -710 711 0
56 66 -96 -711 0
-4 -23 25 712 0
25 30 -712 713 0
30 -36 92 -713 0
33 -35 -68 714 0
-68 -88 99 -714 0
15 17 -32 715 0
-32 34 70 -715 0
-40 -62 -72 716 0
-40 -62 -72 -716 0
-35 -58 -73 717 0
-35 -58 -73 -717 0
-17 -30 52 91 0
-8 18 -49 718 0
-49 -51 -718 719 0
-51 -74 -719 720 0
-74 76 -77 -720 0
3 -15 -19 721 0
-19 55 -721 722 0
55 93 -94 -722 0
-36 67 94 723 0
-36 67 94 -723 0
3 32 88 -91 0
78 89 100 724 0
78 89 100 -724 0
57 -71 75 725 0
75 -86 -91 -725 0
-13 17 19 726 0
19 40 -726 727 0
40 -47 -727 728 0
-47 -56 -728 729 0
-56 -73 -78 -729 0
25 40 96 97 0
-6 -31 42 730 0
42 43 -730 731 0
43 -58 -731 732 0
-58 -61 88 -732 0
20 23 45 733 0
45 -60 -69 -733 0
20 -41 53 -54 0
6 -12 -24 734 0
-24 -45 -734 735 0
-45 47 -735 736 0
47 48 -736 737 0
48 -50 -737 738 0
-50 52 -738 739 0
52 53 -739 740 0
53 -55 -60 -740 0
19 -40 741 742 0
19 -40 741 -742 0
19 -40 -741 742 0
19 -40 -741 -742 0
11 26 -49 743 0
-49 -58 -743 744 0
-58 70 -744 745 0
70 81 -99 -745 0
-33 -83 91 92 0
-26 44 -62 97 0
19 36 -76 746 0
-76 81 98 -746 0
1 15 -30 747 0
-30 -46 -747 748 0
-46 -54 82 -748 0
30 -34 -73 79 0
20 34 -45 749 0
-45 56 -95 -749 0
22 -68 -73 750 0
22 -68 -73 -750 0
3 10 19 751 0
19 21 -751 752 0
21 26 -752 753 0
26 37 -753 754 0
37 -51 -754 755 0
-51 -54 -755 756 0
-54 64 90 -756 0
-22 30 39 757 0
-22 30 39 -757 0
-1 6 -26 758 0
-26 -57 -758 759 0
-57 -66 -759 760 0
-66 77 -760 761 0
77 78 -761 762 0
78 85 -95 -762 0
-17 -49 68 763 0
68 -73 84 -763 0
-1 26 -43 764 0
-43 84 88 -764 0
24 -57 -70 89 0
2 20 -22 765 0
-22 -72 91 -765 0
7 69 79 766 0
79 93 -99 -766 0
-20 -58 78 767 0
-20 -58 78 -767 0
40 41 -46 768 0
-46 -60 -768 769 0
-60 68 -70 -769 0
24 52 770 771 0
24 52 770 -771 0
24 52 -770 771 0
24 52 -770 -771 0
-2 6 -28 772 0
-28 32 -772 773 0
32 -64 75 -773 0
-24 47 -62 774 0
-62 -67 -774 775 0
-67 -71 -775 776 0
-71 84 89 -776 0
-25 49 -56 777 0
-25 49 -56 -777 0
22 -25 32 778 0
32 67 -778 779 0
67 -77 -88 -779 0
66 68 86 780 0
66 68 86 -780 0
-21 27 52 -83 0
41 91 94 781 0
41 91 94 -781 0
-77 80 -90 782 0
-77 80 -90 -782 0
6 -11 64 783 0
64 65 96 -783 0
-23 63 69 784 0
69 84 99 -784 0
-22 25 -46 -63 0
-36 55 60 785 0
60 69 -81 -785 0
-6 -32 43 786 0
43 45 -786 787 0
45 -66 -787 788 0
-66 -68 -788 789 0
-68 77 -789 790 0
77 -83 -87 -790 0
-6 -35 86 91 0
16 44 71 791 0
16 44 71 -791 0
-16 23 -29 60 0
17 -21 -83 -93 0
-18 49 52 792 0
52 -59 65 -792 0
-3 -9 68 793 0
68 82 83 -793 0
-22 31 -34 794 0
-34 -58 -794 795 0
-58 -62 -795 796 0
-62 90 -796 797 0
90 91 -98 -797 0
-5 -18 45 798 0
45 47 -798 799 0
47 64 -799 800 0
64 -77 -800 801 0
-77 84 -85 -801 0
30 -40 56 802 0
56 -67 -99 -802 0
-4 -9 -39 803 0
-39 84 -803 804 0
84 91 -92 -804 0
-2 -16 -20 805 0
-20 -24 -805 806 0
-24 34 -806 807 0
34 -53 -807 808 0
-53 -73 -808 809 0
-73 78 -809 810 0
78 -85 -100 -810 0
-5 -34 36 76 0
-4 -7 20 811 0
20 87 94 -811 0
16 -21 28 812 0
28 29 -812 813 0
29 64 -77 -813 0
3 5 18 814 0
18 19 -814 815 0
19 35 -815 816 0
35 39 -816 817 0
39 -45 -69 -817 0
11 14 16 818 0
16 -30 -818 819 0
-30 -47 -819 820 0
-47 73 -83 -820 0
-10 -16 98 821 0
-10 -16 98 -821 0
-6 27 -46 -87 0
22 -35 -45 822 0
-45 -56 -822 823 0
-56 99 100 -823 0
9 15 58 96 0
-24 -31 58 824 0
58 -79 87 -824 0
15 -28 -51 825 0
-51 -70 83 -825 0
13 14 -25 826 0
13 14 -25 -826 0
26 -27 -38 827 0
-38 -53 -827 828 0
-53 -56 -828 829 0
-56 -77 -89 -829 0
-15 -20 26 830 0
26 27 -830 831 0
27 55 -831 832 0
55 87 -832 833 0
87 -92 99 -833 0
35 -64 67 834 0
67 -76 -79 -834 0
-24 29 58 835 0
58 -73 77 -835 0
11 -33 42 836 0
42 -43 -46 -836 0
-48 58 837 838 0
-48 58 837 -838 0
-48 58 -837 838 0
-48 58 -837 -838 0
11 19 -27 839 0
-27 -34 -73 -839 0
-7 10 -11 840 0
-11 45 -840 841 0
45 57 -841 842 0
57 81 -842 843 0
81 -82 -843 844 0
-82 99 100 -844 0
-11 27 45 845 0
45 -51 -845 846 0
-51 -95 99 -846 0
30 -52 -56 -68 0
-5 22 46 847 0
-5 22 46 -847 0
29 92 848 849 0
29 92 848 -849 0
29 92 -848 849 0
29 92 -848 -849 0
-1 -3 9 850 0
9 57 -850 851 0
57 -88 -97 -851 0
-4 39 852 853 0
-4 39 852 -853 0
-4 39 -852 853 0
-4 39 -852 -853 0
15 -26 65 854 0
65 66 -854 855 0
66 -75 -98 -855 0
35 59 76 856 0
76 86 -856 857 0
86 87 -857 858 0
87 -90 -100 -858 0
29 -68 71 859 0
71 -77 80 -859 0
-2 26 35 860 0
35 -73 89 -860 0
79 -86 95 861 0
79 -86 95 -861 0
21 -29 -46 64 0
-18 55 -59 862 0
-59 -81 -862 863 0
-81 84 -863 864 0
84 90 -864 865 0
90 -97 -100 -865 0
-33 36 -48 866 0
-48 61 -866 867 0
61 -66 -867 868 0
-66 -82 -868 869 0
-82 85 -88 -869 0
20 32 -54 870 0
-54 -63 -870 871 0
-63 74 -871 872 0
74 -75 -93 -872 0
12 -40 42 81 0
30 85 873 874 0
30 85 873 -874 0
30 85 -873 874 0
30 85 -873 -874 0
-20 -49 -75 875 0
-20 -49 -75 -875 0
-68 83 876 877 0
-68 83 876 -877 0
-68 83 -876 877 0
-68 83 -876 -877 0
-1 -13 42 878 0
42 -48 -90 -878 0
1 8 35 879 0
35 -39 -879 880 0
-39 -58 -880 881 0
-58 -67 87 -881 0
-35 43 -81 -95 0
-29 42 67 882 0
-29 42 67 -882 0
11 -17 -27 34 0
6 42 52 883 0
52 -80 96 -883 0
59 -60 -82 884 0
59 -60 -82 -884 0
-21 -72 -83 -88 0
10 62 -75 -90 0
15 20 36 885 0
36 38 -885 886 0
38 -46 -886 887 0
-46 -64 -887 888 0
-64 67 -888 889 0
67 -77 92 -889 0
17 22 37 890 0
37 -74 -890 891 0
-74 -86 -92 -891 0
35 -55 69 892 0
69 -71 -91 -892 0
77 -78 90 893 0
77 -78 90 -893 0
10 -12 -16 894 0
-16 43 -894 895 0
43 59 -895 896 0
59 61 -896 897 0
61 -83 -897 898 0
-83 86 88 -898 0
-4 17 66 899 0
66 -71 99 -899 0
-9 -44 -83 87 0
-29 -41 61 -71 0
24 -60 -69 75 0
-12 -21 -28 900 0
-28 32 -900 901 0
32 -45 -901 902 0
-45 69 71 -902 0
-11 14 -29 903 0
-29 79 92 -903 0
-4 -54 -83 -94 0
-5 25 -30 904 0
-30 33 -72 -904 0
1 4 -6 905 0
-6 -15 -905 906 0
-15 -41 -906 907 0
-41 -52 63 -907 0
2 -51 56 908 0
56 -69 -908 909 0
-69 87 -97 -909 0
34 90 95 910 0
34 90 95 -910 0
9 27 34 911 0
34 35 96 -911 0
-29 32 -45 912 0
-45 -62 -99 -912 0
-24 78 86 913 0
86 89 96 -913 0
8 -19 41 914 0
41 60 -914 915 0
60 -66 -915 916 0
-66 -83 -85 -916 0
69 -86 -91 94 0
-2 -61 917 918 0
-2 -61 917 -918 0
-2 -61 -917 918 0
-2 -61 -917 -918 0
-19 34 -59 919 0
-59 77 -919 920 0
77 80 86 -920 0
19 30 -64 -93 0
35 -49 84 -86 0
1 23 32 921 0
32 72 -921 922 0
72 93 94 -922 0
33 74 89 923 0
33 74 89 -923 0
-22 88 -91 924 0
-22 88 -91 -924 0
-17 -21 925 926 0
-17 -21 925 -926 0
-17 -21 -925 926 0
-17 -21 -925 -926 0
25 56 -73 927 0
25 56 -73 -927 0
-7 29 -52 928 0
-52 -56 -68 -928 0
-3 -47 49 929 0
49 -50 -929 930 0
-50 60 -930 931 0
60 -64 -931 932 0
-64 -67 71 -932 0
9 -20 -31 933 0
-31 70 -933 934 0
70 94 -934 935 0
94 97 100 -935 0
10 28 -33 936 0
10 28 -33 -936 0
-37 42 46 937 0
46 -58 -937 938 0
-58 60 64 -938 0
-1 18 -43 939 0
-43 65 -939 940 0
65 69 -940 941 0
69 81 -98 -941 0
11 21 -30 -82 0
7 11 -14 -62 0
11 -26 37 942 0
37 43 -942 943 0
43 46 -943 944 0
46 48 -944 945 0
48 -62 -78 -945 0
-16 -40 -45 -58 0
22 27 -30 946 0
-30 -43 -946 947 0
-43 -85 -947 948 0
-85 -90 -97 -948 0
11 -13 -16 949 0
-16 -37 -60 -949 0
-2 49 950 951 0
-2 49 950 -951 0
-2 49 -950 951 0
-2 49 -950 -951 0
4 68 92 952 0
4 68 92 -952 0
42 43 -58 96 0
10 -19 40 56 0
1 -13 17 953 0
17 19 -953 954 0
19 -22 30 -954 0
11 17 -54 955 0
11 17 -54 -955 0
-2 -76 956 957 0
-2 -76 956 -957 0
-2 -76 -956 957 0
-2 -76 -956 -957 0
1 2 -43 958 0
-43 -47 -958 959 0
-47 -51 78 -959 0
-2 15 -80 -90 0
32 -37 -54 960 0
-54 61 -960 961 0
61 66 -961 962 0
66 -71 81 -962 0
18 -20 -25 963 0
-25 29 -963 964 0
29 35 -964 965 0
35 46 -965 966 0
46 55 98 -966 0
-7 -20 24 967 0
24 36 -967 968 0
36 -39 -968 969 0
-39 45 -969 970 0
45 -51 71 -970 0
72 89 971 972 0
72 89 971 -972 0
72 89 -971 972 0
72 89 -971 -972 0
-3 -57 -77 973 0
-77 -80 -96 -973 0
-44 -74 -83 974 0
-44 -74 -83 -974 0
-17 -21 62 975 0
62 73 -975 976 0
73 -74 -976 977 0
-74 -84 -977 978 0
-84 -87 -978 979 0
-87 90 -979 980 0
90 -98 -100 -980 0
-10 23 -57 981 0
-57 72 94 -981 0
-1 -3 27 982 0
27 55 -982 983 0
55 -65 -983 984 0
-65 -73 -78 -984 0
-12 -15 -40 53 0
16 -56 60 985 0
16 -56 60 -985 0
-4 29 52 57 0
10 -64 986 987 0
10 -64 986 -987 0
10 -64 -986 987 0
10 -64 -986 -987 0
10 -24 -39 44 0
34 76 988 989 0
34 76 988 -989 0
34 76 -988 989 0
34 76 -988 -989 0
-11 28 990 991 0
-11 28 990 -991 0
-11 28 -990 991 0
-11 28 -990 -991 0
28 -34 56 992 0
56 57 -992 993 0
57 -69 -99 -993 0
-20 24 -39 994 0
-39 53 -994 995 0
53 56 -995 996 0
56 58 90 -996 0
-22 42 62 997 0
62 65 -997 998 0
65 66 -998 999 0
66 -98 100 -999 0
16 -30 52 1000 0
16 -30 52 -1000 0
-7 39 50 -96 0
-23 -55 58 1001 0
-23 -55 58 -1001 0
18 19 71 1002 0
18 19 71 -1002 0
28 47 49 1003 0
49 51 -1003 1004 0
51 86 -1004 1005 0
86 -95 98 -1005 0
45 50 -92 1006 0
45 50 -92 -1006 0
-23 -36 -46 1007 0
-23 -36 -46 -1007 0
6 17 74 1008 0
74 -83 -95 -1008 0
-5 11 -47 1009 0
-5 11 -47 -1009 0
1 20 21 1010 0
21 -56 -1010 1011 0
-56 65 75 -1011 0
8 -13 -32 1012 0
-32 34 -1012 1013 0
34 39 -45 -1013 0
42 -44 -77 -97 0
24 26 -41 1014 0
-41 43 79 -1014 0
-49 -71 -81 1015 0
-49 -71 -81 -1015 0
-44 -67 -82 1016 0
-44 -67 -82 -1016 0
-26 -39 61 100 0
2 -3 -17 1017 0
-17 27 -1017 1018 0
27 -58 -1018 1019 0
-58 -60 -1019 1020 0
-60 -83 -1020 1021 0
-83 85 -86 -1021 0
3 12 -24 1022 0
-24 -28 64 -1022 0
-45 76 1023 1024 0
-45 76 1023 -1024 0
-45 76 -1023 1024 0
-45 76 -1023 -1024 0
9 12 41 1025 0
41 97 -100 -1025 0
87 98 1026 1027 0
87 98 1026 -1027 0
87 98 -1026 1027 0
87 98 -1026 -1027 0
66 -80 84 1028 0
84 -95 -100 -1028 0
5 6 -22 1029 0
-22 26 -1029 1030 0
26 28 -1030 1031 0
28 49 -1031 1032 0
49 -56 -1032 1033 0
-56 -65 -1033 1034 0
-65 -82 -87 -1034 0
34 49 1035 1036 0
34 49 1035 -1036 0
34 49 -1035 1036 0
34 49 -1035 -1036 0
-15 -40 51 1037 0
51 52 -1037 1038 0
52 -67 -1038 1039 0
-67 -70 97 -1039 0
29 32 54 1040 0
54 -69 -78 -1040 0
29 -50 62 -63 0
15 -21 -33 1041 0
-33 -54 -1041 1042 0
-54 56 -1042 1043 0
56 57 -1043 1044 0
57 -59 -1044 1045 0
-59 61 -1045 1046 0
61 62 -1046 1047 0
62 -64 -69 -1047 0
-7 28 -49 1048 0
-7 28 -49 -1048 0
1 20 35 1049 0
35 -58 -1049 1050 0
-58 -67 -1050 1051 0
-67 79 90 -1051 0
6 -42 -92 100 0
7 -35 53 -71 0
28 45 -85 90 0
10 24 -39 1052 0
-39 -55 -1052 1053 0
-55 -63 91 -1053 0
39 -43 -82 88 0
-4 -11 1054 1055 0
-4 -11 1054 -1055 0
-4 -11 -1054 1055 0
-4 -11 -1054 -1055 0
29 43 -54 65 0
31 -77 -82 1056 0
31 -77 -82 -1056 0
12 19 28 1057 0
28 30 -1057 1058 0
30 35 -1058 1059 0
35 46 -1059 1060 0
46 -60 -1060 1061 0
-60 -63 -1061 1062 0
-63 73 99 -1062 0
-4 -31 39 48 0
-10 15 -35 1063 0
-35 -66 -1063 1064 0
-66 -75 -1064 1065 0
-75 86 -1065 1066 0
86 87 94 -1066 0
-26 -58 77 1067 0
77 -82 93 -1067 0
-10 35 -52 1068 0
-52 93 97 -1068 0
33 -66 -79 98 0
2 -8 11 1069 0
11 29 -1069 1070 0
29 -31 -1070 1071 0
-31 -81 100 -1071 0
16 78 88 1072 0
16 78 88 -1072 0
-29 -67 87 1073 0
-29 -67 87 -1073 0
49 50 -55 1074 0
-55 -69 -1074 1075 0
-69 77 -79 -1075 0
33 61 1076 1077 0
33 61 1076 -1077 0
33 61 -1076 1077 0
33 61 -1076 -1077 0
-11 15 -37 1078 0
-37 41 -1078 1079 0
41 -73 84 -1079 0
-33 56 -71 1080 0
-71 -76 -1080 1081 0
-76 -80 -1081 1082 0
-80 93 98 -1082 0
-34 58 -65 1083 0
-34 58 -65 -1083 0
31 -34 41 1084 0
41 76 -1084 1085 0
76 -86 -97 -1085 0
75 77 95 1086 0
75 77 95 -1086 0
3 -30 36 1087 0
36 61 -92 -1087 0
50 100 1088 1089 0
50 100 1088 -1089 0
50 100 -1088 1089 0
50 100 -1088 -1089 0
5 -86 89 -99 0
8 15 -20 1090 0
-20 73 74 -1090 0
-32 72 78 93 0
-31 34 -55 -72 0
-45 64 69 1091 0
69 78 -90 -1091 0
-15 -41 52 1092 0
52 54 -1092 1093 0
54 -75 -1093 1094 0
-75 -77 -1094 1095 0
-77 86 -1095 1096 0
86 -92 -96 -1096 0
-15 -44 95 100 0
25 53 80 1097 0
25 53 80 -1097 0
-2 -25 32 1098 0
32 -38 69 -1098 0
26 -30 -92 1099 0
26 -30 -92 -1099 0
-27 58 61 1100 0
61 -68 74 -1100 0
-7 -12 -18 1101 0
-18 77 -1101 1102 0
77 91 92 -1102 0
-31 40 -43 1103 0
-43 -67 -1103 1104 0
-67 -71 -1104 1105 0
-71 99 100 -1105 0
-8 -14 -27 1106 0
-27 54 -1106 1107 0
54 56 -1107 1108 0
56 73 -1108 1109 0
73 -86 -1109 1110 0
-86 93 -94 -1110 0
-1 39 -49 1111 0
-49 65 -76 -1111 0
-9 -13 -18 1112 0
-18 -48 -1112 1113 0
-48 93 100 -1113 0
-11 -25 -29 1114 0
-29 -33 -1114 1115 0
-33 43 -1115 1116 0
43 -62 -1116 1117 0
-62 -82 -1117 1118 0
-82 87 -94 -1118 0
3 -14 -43 1119 0
-43 45 85 -1119 0
-13 -16 29 96 0
25 -30 37 1120 0
37 38 -1120 1121 0
38 73 -86 -1121 0
12 14 27 1122 0
27 28 -1122 1123 0
28 44 -1123 1124 0
44 48 -1124 1125 0
48 -54 -78 -1125 0
7 20 23 1126 0
23 25 -1126 1127 0
25 -39 -1127 1128 0
-39 -56 -1128 1129 0
-56 82 -92 -1129 0
-19 -25 1130 1131 0
-19 -25 1130 -1131 0
-19 -25 -1130 1131 0
-19 -25 -1130 -1131 0
8 9 -15 1132 0
-15 36 -1132 1133 0
36 -55 -96 -1133 0
5 31 -44 1134 0
-44 -54 -65 -1134 0
18 24 67 1135 0
18 24 67 -1135 0
-33 -40 67 1136 0
67 -88 96 -1136 0
24 -37 -60 1137 0
-60 -79 92 -1137 0
22 23 -34 1138 0
22 23 -34 -1138 0
-1 8 35 1139 0
35 -36 -1139 1140 0
-36 -47 -1140 1141 0
-47 -62 -1141 1142 0
-62 -65 -1142 1143 0
-65 -86 -98 -1143 0
-24 -29 35 1144 0
35 36 -1144 1145 0
36 64 96 -1145 0
44 -73 76 1146 0
76 -85 -88 -1146 0
-33 38 67 1147 0
67 -82 86 -1147 0
20 -42 51 1148 0
51 -52 -55 -1148 0
-57 67 1149 1150 0
-57 67 1149 -1150 0
-57 67 -1149 1150 0
-57 67 -1149 -1150 0
8 9 20 1151 0
20 28 -1151 1152 0
28 -36 -1152 1153 0
-36 -43 -82 -1153 0
-4 8 -16 1154 0
-16 19 -1154 1155 0
19 -20 -1155 1156 0
-20 54 -1156 1157 0
54 66 -1157 1158 0
66 90 -91 -1158 0
-20 36 54 -60 0
39 -61 -65 -77 0
1 -14 31 55 0
-6 38 1159 1160 0
-6 38 1159 -1160 0
-6 38 -1159 1160 0
-6 38 -1159 -1160 0
-10 -12 18 1161 0
18 66 -97 -1161 0
-7 -13 48 1162 0
-7 -13 48 -1162 0
-9 24 -35 1163 0
-35 74 -1163 1164 0
74 75 -84 -1164 0
44 68 85 1165 0
85 95 -1165 1166 0
95 96 -99 -1166 0
38 -77 80 1167 0
80 -86 89 -1167 0
4 -11 35 1168 0
35 44 -1168 1169 0
44 -82 98 -1169 0
88 -95 1170 1171 0
88 -95 1170 -1171 0
88 -95 -1170 1171 0
88 -95 -1170 -1171 0
-6 -9 30 1172 0
30 -38 -1172 1173 0
-38 -55 73 -1173 0
-27 64 -68 1174 0
-68 -90 -1174 1175 0
-90 93 99 -1175 0
-2 -42 45 1176 0
45 -57 -1176 1177 0
-57 70 -1177 1178 0
70 -75 -1178 1179 0
-75 -91 -1179 1180 0
-91 94 -97 -1180 0
29 41 -63 1181 0
-63 -72 -1181 1182 0
-72 83 -84 -1182 0
21 -49 51 90 0
39 94 1183 1184 0
39 94 1183 -1184 0
39 94 -1183 1184 0
39 94 -1183 -1184 0
-29 -58 -84 1185 0
-29 -58 -84 -1185 0
-77 92 1186 1187 0
-77 92 1186 -1187 0
-77 92 -1186 1187 0
-77 92 -1186 -1187 0
-10 -22 51 1188 0
51 -57 -99 -1188 0
-4 10 17 1189 0
17 44 -1189 1190 0
44 -48 -1190 1191 0
-48 -67 -1191 1192 0
-67 -76 96 -1192 0
-44 52 -90 1193 0
-44 52 -90 -1193 0
-38 51 76 1194 0
-38 51 76 -1194 0
5 20 -26 1195 0
-26 -36 43 -1195 0
15 51 61 -89 0
68 -69 -91 1196 0
68 -69 -91 -1196 0
-30 -81 -92 -97 0
1 19 71 1197 0
71 -84 -99 -1197 0
-1 24 29 1198 0
29 45 -1198 1199 0
45 47 -1199 1200 0
47 -55 -1200 1201 0
-55 -73 -1201 1202 0
-73 76 -86 -1202 0
26 31 46 1203 0
46 -83 -95 -1203 0
44 -64 78 1204 0
78 -80 -100 -1204 0
86 -87 99 1205 0
86 -87 99 -1205 0
8 19 -21 1206 0
-21 -25 -1206 1207 0
-25 52 -1207 1208 0
52 68 -1208 1209 0
68 70 -1209 1210 0
70 -92 -1210 1211 0
-92 95 97 -1211 0
-13 26 75 -80 0
-18 -53 -92 96 0
-38 -50 70 -80 0
33 -69 -78 84 0
1 -21 -30 1212 0
-30 -37 -1212 1213 0
-37 41 -1213 1214 0
41 -54 -1214 1215 0
-54 78 80 -1215 0
-3 -20 23 1216 0
23 -38 88 -1216 0
-13 -63 -92 1217 0
-13 -63 -92 -1217 0
-14 34 -39 1218 0
-39 42 -81 -1218 0
-6 10 13 1219 0
13 -15 -1219 1220 0
-15 -24 -1220 1221 0
-24 -50 -1221 1222 0
-50 -61 72 -1222 0
4 11 -60 1223 0
-60 65 -1223 1224 0
65 -78 96 -1224 0
5 43 99 1225 0
5 43 99 -1225 0
-8 18 36 1226 0
36 43 44 -1226 0
5 -38 41 1227 0
41 -54 -71 -1227 0
-33 87 95 98 0
3 17 -28 1228 0
-28 50 -1228 1229 0
50 69 -1229 1230 0
69 -75 -1230 1231 0
-75 -92 -94 -1231 0
78 -95 -100 1232 0
78 -95 -100 -1232 0
-11 -70 1233 1234 0
-11 -70 1233 -1234 0
-11 -70 -1233 1234 0
-11 -70 -1233 -1234 0
-2 -28 43 1235 0
43 -68 -1235 1236 0
-68 86 -1236 1237 0
86 89 95 -1237 0
28 39 -73 1238 0
28 39 -73 -1238 0
2 3 44 1239 0
44 -58 -1239 1240 0
-58 93 -95 -1240 0
10 32 41 81 0
42 83 98 1241 0
42 83 98 -1241 0
-31 97 -100 1242 0
-31 97 -100 -1242 0
-26 -30 1243 1244 0
-26 -30 1243 -1244 0
-26 -30 -1243 1244 0
-26 -30 -1243 -1244 0
34 65 -82 1245 0
34 65 -82 -1245 0
-16 38 -61 1246 0
-61 -65 -77 -1246 0
3 6 9 1247 0
9 -12 -1247 1248 0
-12 -56 -1248 1249 0
-56 58 -1249 1250 0
58 -59 -1250 1251 0
-59 69 -1251 1252 0
69 -73 -1252 1253 0
-73 -76 80 -1253 0
18 -29 -40 79 0
19 37 -42 1254 0
19 37 -42 -1254 0
-7 -46 51 1255 0
51 55 -1255 1256 0
55 -67 -1256 1257 0
-67 69 73 -1257 0
-10 27 -52 1258 0
-52 74 -1258 1259 0
74 78 90 -1259 0
20 30 -39 -91 0
16 20 -23 -71 0
20 -35 46 1260 0
46 52 -1260 1261 0
52 55 -1261 1262 0
55 57 -1262 1263 0
57 -71 -87 -1263 0
-6 -25 -49 1264 0
-49 -54 -67 -1264 0
31 36 -39 1265 0
-39 -52 -1265 1266 0
-52 -94 -99 -1266 0
20 -22 -25 1267 0
-25 -46 -69 -1267 0
1 -11 58 1268 0
1 -11 58 -1268 0
5 13 77 1269 0
5 13 77 -1269 0
51 52 -67 1270 0
51 52 -67 -1270 0
19 -28 49 65 0
10 -22 26 1271 0
26 28 -1271 1272 0
28 -31 39 -1272 0
20 26 -63 1273 0
20 26 -63 -1273 0
-11 -85 1274 1275 0
-11 -85 1274 -1275 0
-11 -85 -1274 1275 0
-11 -85 -1274 -1275 0
10 11 -52 1276 0
-52 -56 -1276 1277 0
-56 -60 87 -1277 0
-11 24 -89 -99 0
7 41 -46 1278 0
-46 -63 -1278 1279 0
-63 70 -1279 1280 0
70 75 -1280 1281 0
75 -80 90 -1281 0
27 -29 -34 1282 0
-34 38 -1282 1283 0
38 44 -1283 1284 0
44 55 64 -1284 0
-16 -29 33 1285 0
33 45 -1285 1286 0
45 -48 -1286 1287 0
-48 54 -1287 1288 0
54 -60 80 -1288 0
-5 81 98 1289 0
-5 81 98 -1289 0
-12 -66 -86 -89 0
-7 -9 -53 1290 0
-53 -83 -92 -1290 0
3 -26 -30 1291 0
-30 71 -1291 1292 0
71 82 -1292 1293 0
82 -83 -1293 1294 0
-83 -93 -1294 1295 0
-93 -96 99 -1295 0
-19 32 -66 81 0
-10 -12 36 1296 0
36 64 -1296 1297 0
64 -74 -1297 1298 0
-74 -82 -87 -1298 0
-21 -24 -49 62 0
25 -65 69 1299 0
25 -65 69 -1299 0
-13 38 61 66 0
19 -73 1300 1301 0
19 -73 1300 -1301 0
19 -73 -1300 1301 0
19 -73 -1300 -1301 0
19 -33 -48 53 0
43 85 1302 1303 0
43 85 1302 -1303 0
43 85 -1302 1303 0
43 85 -1302 -1303 0
-8 -20 37 1304 0
-8 -20 37 -1304 0
37 -43 65 1305 0
65 66 -78 -1305 0
-7 9 -29 1306 0
-29 33 -1306 1307 0
33 -48 -1307 1308 0
-48 62 -1308 1309 0
62 65 -1309 1310 0
65 67 99 -1310 0
-31 51 71 1311 0
71 74 75 -1311 0
-5 25 -39 61 0
-16 48 59 1312 0
-16 48 59 -1312 0
-32 -64 67 1313 0
-32 -64 67 -1313 0
-4 7 27 1314 0
27 28 80 -1314 0
-1 37 56 1315 0
56 58 -1315 1316 0
58 60 95 -1316 0
54 59 1317 1318 0
54 59 1317 -1318 0
54 59 -1317 1318 0
54 59 -1317 -1318 0
-4 -32 -45 -55 0
15 26 83 -92 0
-14 20 -56 1319 0
-14 20 -56 -1319 0
10 29 30 1320 0
30 -65 -1320 1321 0
-65 74 84 -1321 0
-6 17 -22 1322 0
-22 -41 -1322 1323 0
-41 43 -1323 1324 0
43 48 -54 -1324 0
51 -53 -86 1325 0
51 -53 -86 -1325 0
33 35 -50 1326 0
-50 52 88 -1326 0
-58 -80 -90 1327 0
-58 -80 -90 -1327 0
9 -53 -76 -91 0
-35 -48 70 1328 0
-35 -48 70 -1328 0
11 -12 -26 1329 0
-26 36 -1329 1330 0
36 -67 -1330 1331 0
-67 -69 -1331 1332 0
-69 -92 -1332 1333 0
-92 94 -95 -1333 0
12 21 -33 1334 0
-33 -37 73 -1334 0
6 -9 -54 85 0
7 18 21 50 0
-4 -9 96 1335 0
-4 -9 96 -1335 0
75 -89 93 1336 0
75 -89 93 -1336 0
14 15 -31 1337 0
-31 35 -1337 1338 0
35 37 -1338 1339 0
37 58 -1339 1340 0
58 -65 -1340 1341 0
-65 -74 -1341 1342 0
-74 -91 -96 -1342 0
6 43 58 1343 0
6 43 58 -1343 0
-24 -49 60 1344 0
60 61 -1344 1345 0
61 -76 -79 -1345 0
38 41 63 1346 0
63 -78 -87 -1346 0
38 -59 71 -72 0
24 -30 -42 1347 0
-42 -63 -1347 1348 0
-63 65 -1348 1349 0
65 66 -1349 1350 0
66 -68 -1350 1351 0
-68 70 -1351 1352 0
70 71 -1352 1353 0
71 -73 -78 -1353 0
-16 37 -58 1354 0
-16 37 -58 -1354 0
-1 9 10 1355 0
10 29 -1355 1356 0
29 44 -1356 1357 0
44 -67 -1357 1358 0
-67 -76 -1358 1359 0
-76 88 99 -1359 0
15 -51 1360 1361 0
15 -51 1360 -1361 0
15 -51 -1360 1361 0
15 -51 -1360 -1361 0
16 -44 62 -80 0
37 54 -94 99 0
19 33 -48 1362 0
-48 -64 -1362 1363 0
-64 -72 100 -1363 0
48 -52 -91 97 0
-13 -20 1364 1365 0
-13 -20 1364 -1365 0
-13 -20 -1364 1365 0
-13 -20 -1364 -1365 0
38 52 -63 74 0
8 40 -86 -91 0
21 28 37 1366 0
37 39 -1366 1367 0
39 44 -1367 1368 0
44 55 -1368 1369 0
55 -69 -1369 1370 0
-69 -72 82 -1370 0
3 -13 -40 1371 0
-40 48 57 -1371 0
2 -19 24 1372 0
24 -44 -1372 1373 0
-44 -75 -1373 1374 0
-75 -84 -1374 1375 0
-84 95 96 -1375 0
2 6 -35 1376 0
-35 -67 -1376 1377 0
-67 86 -91 -1377 0
7 -19 44 -61 0
9 42 -75 -88 0
11 -17 20 1378 0
20 38 -1378 1379 0
38 -40 -90 -1379 0
25 87 97 1380 0
25 87 97 -1380 0
-38 -76 96 1381 0
-38 -76 96 -1381 0
58 59 -64 1382 0
-64 -78 -1382 1383 0
-78 86 -88 -1383 0
42 70 1384 1385 0
42 70 1384 -1385 0
42 70 -1384 1385 0
42 70 -1384 -1385 0
2 7 -20 1386 0
-20 24 -1386 1387 0
24 -46 -1387 1388 0
-46 50 -1388 1389 0
50 -82 93 -1389 0
-42 65 -80 1390 0
-80 -85 -89 -1390 0
-6 -43 67 -74 0
4 40 -43 1391 0
-43 50 -1391 1392 0
50 85 -95 -1392 0
-1 84 86 1393 0
-1 84 86 -1393 0
9 12 -39 1394 0
-39 45 70 -1394 0
-8 59 1395 1396 0
-8 59 1395 -1396 0
-8 59 -1395 1396 0
-8 59 -1395 -1396 0
14 -95 98 1397 0
14 -95 98 -1397 0
2 17 24 1398 0
24 -29 -1398 1399 0
-29 82 83 -1399 0
-41 81 87 1400 0
-41 81 87 -1400 0
-40 43 -64 -81 0
-1 -5 -54 1401 0
-54 73 -1401 1402 0
73 78 -1402 1403 0
78 87 -99 -1403 0
4 9 -24 1404 0
-24 -50 -1404 1405 0
-50 61 -1405 1406 0
61 63 -1406 1407 0
63 -84 -1407 1408 0
-84 -86 95 -1408 0
-24 -53 1409 1410 0
-24 -53 1409 -1410 0
-24 -53 -1409 1410 0
-24 -53 -1409 -1410 0
34 62 89 1411 0
34 62 89 -1411 0
-1 -11 -34 1412 0
-34 41 -1412 1413 0
41 -47 78 -1413 0
35 -39 1414 1415 0
35 -39 1414 -1415 0
35 -39 -1414 1415 0
35 -39 -1414 -1415 0
1 -36 67 1416 0
67 70 -1416 1417 0
70 -77 83 -1417 0
8 9 -16 1418 0
-16 -21 -1418 1419 0
-21 -27 -1419 1420 0
-27 86 100 -1420 0
2 -3 -40 1421 0
-40 49 -1421 1422 0
49 -52 -1422 1423 0
-52 -76 -80 -1423 0
-17 -23 -36 1424 0
-36 63 -1424 1425 0
63 65 -1425 1426 0
65 82 -95 -1426 0
2 9 -10 1427 0
-10 48 -1427 1428 0
48 -58 -1428 1429 0
-58 74 -85 -1429 0
